% demand
num_movements = 35;
loading_factor = [1800, 1900, 1050, 1900, 1600, 1100, 1450, 2000, 1550, 1950, 850, 1200, 1800, 1550, 1250, 800, 1900, 1050, 1100, 950, 1450, 1350, 2000, 2000, 1200, 1450, 900, 1150, 1400, 1100, 2000, 1750, 1600, 1100, 1650];
pickup_time = [0, 0, 0, 0, 0, 0, 0, 1, 1, 1, 2, 2, 2, 3, 3, 3, 3, 3, 3, 3, 4, 4, 4, 4, 5, 5, 5, 5, 6, 6, 6, 6, 6, 6, 7];
delivery_time = [1, 2, 1, 1, 2, 3, 1, 3, 2, 2, 3, 3, 3, 5, 4, 4, 4, 5, 4, 6, 5, 6, 6, 7, 6, 6, 6, 6, 8, 7, 7, 8, 8, 7, 8];

% transporter definition
total_capacity = 11000;
num_decks = 4;
capacity = [3000, 3000, 1000, 4000];

% ways out of decks
num_ways_out = 2;
paths_out = array3d(decks, ways_out, decks, [
% ways out of deck d1
2, 4, 0, 0, 3, 4, 0, 0, 

% ways out of deck d2
4, 0, 0, 0, 0, 0, 0, 0,	

% ways out of deck d3
4, 0, 0, 0, 0, 0, 0, 0,	

% ways out of deck d4
0, 0, 0, 0,	0, 0, 0, 0,	

]);

